; benchmark generated from python API
(set-info :status unknown)
(declare-datatypes ((RealState 0)) (((RMk1 (rval1 Real)) (RMk2 (rval2 Real)))))
 (assert
 (forall ((|v17:0| Real) )(forall ((|v16:1| Real) )(forall ((|v15:2| Real) )(forall ((|v14:3| Real) )(forall ((|v13:4| Real) )(forall ((|v12:5| Real) )(exists ((|v11:6_st| RealState) (val!9204 Real) )(exists ((|v10:7_st| RealState) (val!9205 Real) )(exists ((|v9:8_st| RealState) (val!9206 Real) )(exists ((|v8:9_st| RealState) (val!9207 Real) )(exists ((|v7:10_st| RealState) (val!9208 Real) )(exists ((|v6:11_st| RealState) (val!9209 Real) )(forall ((|v5:12| Real) )(forall ((|v4:13| Real) )(forall ((|v3:14| Real) )(forall ((|v2:15| Real) )(forall ((|v1:16| Real) )(forall ((|v0:17| Real) )(let ((?x5994 (* 16.0 |v5:12|)))
 (let ((?x5716 (- 5.0)))
 (let ((?x6905 (* ?x5716 |v2:15|)))
 (let ((?x2977 (- 15.0)))
 (let ((?x3143 (* ?x2977 |v4:13|)))
 (let ((?x2673 (rval2 |v7:10_st|)))
 (let ((?x2621 (- 14.0)))
 (let ((?x5804 (* ?x2621 ?x2673)))
 (let ((?x3496 (+ (+ (+ (* (- 16.0) ?x2673) (* 20.0 |v2:15|)) (* 10.0 |v0:17|)) ?x5804)))
 (let ((?x4500 (- 16.0)))
 (let ((?x3129 (* 7.0 |v15:2|)))
 (let ((?x8706 (- 18.0)))
 (let ((?x4993 (* ?x8706 |v16:1|)))
 (let ((?x580 (- 2.0)))
 (let ((?x3657 (* ?x580 |v0:17|)))
 (let ((?x7403 (* 13.0 |v4:13|)))
 (let ((?x6090 (+ (+ (+ (* (- 9.0) |v14:3|) (* ?x8706 |v0:17|)) (* 17.0 (rval2 |v8:9_st|))) ?x7403)))
 (let ((?x5192 (* 2.0 |v15:2|)))
 (let ((?x4941 (* 14.0 |v2:15|)))
 (let ((?x5093 (rval2 |v10:7_st|)))
 (let ((?x4158 (* 18.0 ?x5093)))
 (let ((?x2251 (rval2 |v8:9_st|)))
 (let ((?x6969 (* 16.0 ?x2251)))
 (let ((?x2245 (+ (+ (+ (+ (* (- 8.0) |v17:0|) (* 3.0 |v13:4|)) (* ?x4500 |v0:17|)) ?x6969) ?x4158)))
 (let ((?x5168 (* 15.0 ?x2251)))
 (let ((?x6481 (* 11.0 |v4:13|)))
 (let ((?x4620 (+ (+ (+ (+ (* ?x8706 |v14:3|) (* (- 19.0) |v1:16|)) (* 4.0 |v14:3|)) ?x6481) (* ?x2977 (rval2 |v9:8_st|)))))
 (let (($x4869 (or (<= (+ (+ ?x4620 ?x5168) (* (- 8.0) ?x5093)) 19.0) (<= (+ (+ ?x2245 ?x4941) ?x5192) 4.0))))
 (let ((?x2075 (* 0.0 |v2:15|)))
 (let ((?x5734 (+ (+ (+ (* (- 13.0) |v13:4|) (* 13.0 |v0:17|)) (* 20.0 |v12:5|)) ?x2075)))
 (let ((?x4355 (+ (+ (+ ?x5734 (* ?x2977 (rval2 |v6:11_st|))) (* ?x580 ?x2673)) (* 16.0 |v17:0|))))
 (let ((?x5084 (* 2.0 ?x2673)))
 (let ((?x4502 (* 3.0 |v3:14|)))
 (let ((?x5431 (- 6.0)))
 (let ((?x8670 (* ?x5431 |v3:14|)))
 (let ((?x7152 (+ (+ (* 7.0 (rval2 |v11:6_st|)) (* (- 3.0) ?x5093)) (* (- 7.0) |v12:5|))))
 (let (($x5853 (<= (+ (+ (+ (+ ?x7152 ?x8670) ?x4502) ?x5084) (* (- 13.0) |v15:2|)) 17.0)))
 (let ((?x3539 (- 10.0)))
 (let ((?x2966 (* ?x3539 ?x2251)))
 (let ((?x3491 (* 20.0 |v2:15|)))
 (let ((?x9054 (* 18.0 ?x2673)))
 (let ((?x2060 (+ (+ (+ (* 15.0 |v3:14|) (* ?x5716 |v16:1|)) (* 18.0 (rval2 |v9:8_st|))) ?x9054)))
 (let ((?x2525 (- 4.0)))
 (let ((?x6050 (- 3.0)))
 (let ((?x215 (* ?x6050 |v1:16|)))
 (let ((?x5350 (rval2 |v9:8_st|)))
 (let ((?x2398 (- 7.0)))
 (let ((?x3364 (* ?x2398 ?x5350)))
 (let ((?x120 (+ (+ (+ (* 18.0 |v13:4|) (* (- 13.0) (rval2 |v6:11_st|))) ?x3364) (* ?x4500 |v15:2|))))
 (let ((?x1166 (* ?x580 |v3:14|)))
 (let ((?x8575 (* 6.0 |v16:1|)))
 (let ((?x1820 (* 11.0 |v1:16|)))
 (let ((?x6472 (+ (+ (+ (+ (* 9.0 |v12:5|) (* 4.0 |v3:14|)) (* ?x2398 |v13:4|)) ?x3364) ?x1820)))
 (let (($x5243 (or (<= (+ (+ ?x6472 ?x8575) ?x1166) 14.0) (<= (+ (+ (+ ?x120 ?x2966) ?x215) (* ?x5716 |v12:5|)) ?x2525))))
 (let (($x2636 (and $x5243 (and (<= (+ (+ (+ ?x2060 ?x3491) ?x2966) (* 8.0 ?x2673)) ?x4500) $x5853))))
 (let (($x1159 (and (and $x2636 (or (<= ?x4355 ?x4500) $x4869)) (<= (+ (+ (+ ?x6090 ?x3657) ?x4993) ?x3129) ?x4500))))
 (let ((?x514 (* 0.0 |v1:16|)))
 (let ((?x4885 (rval2 |v11:6_st|)))
 (let ((?x788 (rval2 |v6:11_st|)))
 (let ((?x5655 (* 6.0 ?x788)))
 (let ((?x2285 (+ (+ (+ (* (- 13.0) ?x4885) (* 5.0 |v3:14|)) (* 10.0 ?x5350)) ?x5655)))
 (let ((?x2741 (* ?x4500 |v5:12|)))
 (let ((?x6678 (* 11.0 |v0:17|)))
 (let ((?x7238 (- 1.0)))
 (let ((?x6243 (* ?x7238 ?x788)))
 (let ((?x5690 (+ (+ (+ (+ (* 10.0 |v2:15|) (* ?x2621 |v15:2|)) (* ?x8706 |v13:4|)) ?x6243) ?x6678)))
 (let (($x1423 (or (<= (+ (+ ?x5690 ?x2741) (* 20.0 |v13:4|)) 12.0) (<= (+ (+ (+ ?x2285 ?x4885) ?x514) (* 14.0 ?x5350)) 12.0))))
 (let ((?x5267 (- 20.0)))
 (let ((?x1587 (* ?x5267 |v5:12|)))
 (let ((?x3473 (+ (+ (+ (+ (* 4.0 ?x4885) (* ?x5716 |v3:14|)) ?x3491) (* (- 19.0) |v3:14|)) ?x1587)))
 (let ((?x3242 (* ?x8706 ?x788)))
 (let ((?x2875 (* ?x3539 |v17:0|)))
 (let ((?x8746 (+ (+ (+ (+ |v2:15| (* ?x8706 |v17:0|)) (* (- 13.0) ?x5093)) (* ?x5431 |v5:12|)) ?x2875)))
 (let (($x1667 (and (<= (+ (+ ?x8746 ?x2673) ?x3242) 16.0) (<= (+ (+ ?x3473 ?x5804) ?x9054) 13.0))))
 (let ((?x9055 (* 3.0 |v4:13|)))
 (let ((?x7762 (* 19.0 |v13:4|)))
 (let ((?x2016 (+ (+ (+ (+ (* ?x4500 |v4:13|) (* ?x3539 ?x5350)) (* (- 11.0) |v3:14|)) ?x7762) ?x9055)))
 (let ((?x293 (* ?x580 |v2:15|)))
 (let ((?x234 (* 19.0 |v5:12|)))
 (let ((?x3432 (+ (+ (+ (+ (* ?x2398 |v3:14|) (* 15.0 |v2:15|)) (* 6.0 ?x2251)) ?x234) (* ?x580 ?x5350))))
 (let (($x1320 (or (<= (+ (+ ?x3432 (* ?x5267 ?x4885)) ?x293) 0.0) (<= (+ (+ ?x2016 |v5:12|) |v4:13|) 5.0))))
 (let ((?x7311 (* 20.0 ?x5350)))
 (let ((?x8028 (- 8.0)))
 (let ((?x4415 (* ?x8028 ?x2251)))
 (let ((?x2529 (- 19.0)))
 (let ((?x8533 (* ?x2529 |v1:16|)))
 (let ((?x994 (* 5.0 |v4:13|)))
 (let ((?x45 (+ (+ (+ (+ (* ?x5267 |v14:3|) (* ?x2529 |v14:3|)) (* 15.0 ?x788)) ?x994) ?x8533)))
 (let ((?x865 (* 17.0 |v17:0|)))
 (let ((?x2183 (* 5.0 |v15:2|)))
 (let ((?x7909 (* 14.0 |v1:16|)))
 (let ((?x1500 (+ (+ (+ (+ (* ?x4500 |v14:3|) (* (- 9.0) |v2:15|)) (* 6.0 |v0:17|)) ?x514) ?x7909)))
 (let (($x8741 (and (<= (+ (+ ?x1500 ?x2183) ?x865) ?x2977) (<= (+ (+ ?x45 ?x4415) ?x7311) 6.0))))
 (let ((?x3510 (* 12.0 ?x4885)))
 (let ((?x3563 (* 11.0 ?x5350)))
 (let ((?x5620 (* 19.0 ?x2251)))
 (let ((?x6672 (+ (+ (+ (+ (* 18.0 ?x788) (* (- 13.0) |v13:4|)) (* ?x8706 |v2:15|)) ?x5620) ?x3563)))
 (let ((?x2756 (* 5.0 ?x5093)))
 (let ((?x1030 (* ?x6050 |v17:0|)))
 (let ((?x7624 (* ?x2525 |v4:13|)))
 (let ((?x5616 (+ (+ (+ (+ (* 18.0 |v17:0|) (* ?x2398 |v16:1|)) (* ?x4500 ?x4885)) ?x2251) ?x7624)))
 (let (($x3868 (and (<= (+ (+ ?x5616 ?x1030) ?x2756) 11.0) (<= (+ (+ ?x6672 ?x3510) (* ?x5267 |v16:1|)) 16.0))))
 (let ((?x4641 (* ?x2529 ?x5350)))
 (let ((?x8196 (* 2.0 |v2:15|)))
 (let ((?x529 (- 13.0)))
 (let ((?x4552 (* ?x529 ?x788)))
 (let ((?x2209 (+ (+ (+ (+ (* ?x8706 |v12:5|) (* ?x2529 |v2:15|)) (* 18.0 |v4:13|)) ?x4552) |v13:4|)))
 (let ((?x3103 (* 18.0 ?x5350)))
 (let ((?x3401 (* 9.0 |v3:14|)))
 (let ((?x9079 (+ (+ (+ (* ?x8028 |v14:3|) (* 4.0 ?x4885)) (* (- 17.0) |v14:3|)) (* ?x2977 ?x4885))))
 (let (($x7662 (and (<= (+ (+ (+ ?x9079 ?x3401) ?x3103) ?x4993) 11.0) (<= (+ (+ ?x2209 ?x8196) ?x4641) ?x2529))))
 (let ((?x2528 (* 20.0 |v0:17|)))
 (let ((?x2921 (* ?x4500 |v2:15|)))
 (let ((?x829 (- 9.0)))
 (let ((?x291 (* ?x829 ?x2673)))
 (let ((?x2733 (+ (+ (+ (+ (+ (* ?x2525 |v15:2|) ?x5168) ?x7624) (* 15.0 |v5:12|)) ?x291) ?x2921)))
 (let ((?x7769 (* 4.0 |v17:0|)))
 (let ((?x2247 (+ (+ (+ (+ |v17:0| (* (- 12.0) |v16:1|)) (* 18.0 ?x2251)) (* ?x2398 |v1:16|)) (* ?x2977 ?x2251))))
 (let ((?x4528 (* 2.0 |v4:13|)))
 (let ((?x2639 (* 5.0 |v13:4|)))
 (let ((?x4907 (* 13.0 ?x2673)))
 (let ((?x3941 (+ (+ (+ (+ (* 8.0 |v15:2|) (* ?x580 |v4:13|)) (* 15.0 ?x788)) ?x7762) ?x4907)))
 (let ((?x6964 (* ?x8706 |v1:16|)))
 (let ((?x4938 (* 0.0 ?x788)))
 (let ((?x6336 (+ (+ (+ (+ |v2:15| (* 8.0 |v16:1|)) (* ?x2398 |v16:1|)) (* 11.0 |v5:12|)) ?x4938)))
 (let (($x3790 (and (<= (+ (+ ?x6336 |v14:3|) ?x6964) 1.0) (<= (+ (+ ?x3941 ?x2639) ?x4528) 10.0))))
 (let (($x7839 (or $x3790 (and (<= (+ (+ ?x2247 |v16:1|) ?x7769) ?x2621) (<= (+ ?x2733 ?x2528) ?x5267)))))
 (let (($x241 (or (and $x7839 (and $x7662 $x3868)) (and (and $x8741 $x1320) (or $x1667 $x1423)))))
 (let ((?x5626 (* ?x5267 |v4:13|)))
 (let ((?x2908 (+ (+ (+ (* 11.0 ?x2673) (* (- 17.0) |v5:12|)) (* (- 12.0) |v17:0|)) (* ?x6050 |v16:1|))))
 (let ((?x6966 (* ?x829 |v1:16|)))
 (let ((?x2864 (* ?x3539 |v1:16|)))
 (let ((?x7392 (* 6.0 |v3:14|)))
 (let ((?x3291 (+ (+ (+ (+ (* ?x2621 |v5:12|) ?x2864) (* 12.0 |v4:13|)) (* 11.0 |v17:0|)) ?x7392)))
 (let (($x635 (or (<= (+ (+ ?x3291 ?x2864) ?x6966) 16.0) (<= (+ (+ (+ ?x2908 ?x5626) (* ?x829 ?x788)) ?x4528) ?x8706))))
 (let ((?x136 (* 11.0 ?x5093)))
 (let ((?x863 (* ?x4500 |v0:17|)))
 (let ((?x2263 (+ (+ (+ (+ (+ (* 11.0 |v12:5|) |v14:3|) ?x2875) |v13:4|) (* 5.0 |v3:14|)) ?x863)))
 (let ((?x3203 (* 9.0 ?x5350)))
 (let ((?x2956 (* ?x8706 |v5:12|)))
 (let ((?x7922 (+ (+ (+ (+ (* ?x2398 |v14:3|) (* (- 17.0) ?x2673)) (* ?x7238 |v3:14|)) ?x2956) (* 16.0 |v13:4|))))
 (let ((?x4089 (+ (+ (+ (+ (* 10.0 |v3:14|) (* ?x7238 ?x5093)) (* ?x4500 |v3:14|)) ?x1820) ?x2966)))
 (let (($x1081 (and (<= (+ (+ ?x4089 |v16:1|) |v16:1|) 7.0) (<= (+ (+ ?x7922 (* 12.0 |v15:2|)) ?x3203) ?x2977))))
 (let ((?x1082 (* 10.0 |v3:14|)))
 (let ((?x4408 (+ (+ (+ (+ (* ?x5716 |v4:13|) (* 14.0 ?x5093)) |v15:2|) ?x6243) (* (- 12.0) ?x4885))))
 (let ((?x5233 (* ?x7238 |v1:16|)))
 (let ((?x2575 (* 8.0 |v15:2|)))
 (let ((?x2559 (+ (+ (+ (+ (* 11.0 |v16:1|) (* ?x2621 ?x5093)) (* 18.0 |v13:4|)) ?x2575) (* 10.0 |v14:3|))))
 (let (($x6796 (and (<= (+ (+ ?x2559 |v14:3|) ?x5233) ?x8028) (<= (+ (+ ?x4408 ?x865) ?x1082) ?x8706))))
 (let ((?x534 (* 19.0 |v1:16|)))
 (let ((?x2646 (+ (+ (+ (* ?x7238 |v2:15|) (* ?x5716 |v14:3|)) (* 17.0 |v16:1|)) (* ?x829 |v17:0|))))
 (let ((?x3062 (+ (+ (+ (+ (+ ?x2741 ?x6969) (* (- 12.0) |v14:3|)) (* ?x5716 |v15:2|)) ?x5168) (* ?x8706 ?x5350))))
 (let (($x2389 (or (<= (+ ?x3062 ?x5192) 6.0) (<= (+ (+ (+ ?x2646 ?x534) (* ?x6050 ?x4885)) (* 15.0 |v16:1|)) ?x4500))))
 (let ((?x7158 (* 16.0 ?x788)))
 (let ((?x696 (* ?x829 |v4:13|)))
 (let ((?x336 (* ?x3539 |v0:17|)))
 (let ((?x827 (* 13.0 ?x5350)))
 (let ((?x5041 (+ (+ (+ (+ (* 12.0 ?x2251) (* ?x7238 |v0:17|)) (* 7.0 |v17:0|)) ?x827) ?x336)))
 (let ((?x7207 (* 16.0 |v12:5|)))
 (let ((?x7145 (* 8.0 |v0:17|)))
 (let ((?x8117 (+ (+ (+ (+ (+ ?x7403 (* ?x529 |v4:13|)) (* 13.0 |v14:3|)) ?x4907) ?x7145) (* ?x2398 ?x788))))
 (let ((?x3805 (* ?x829 |v13:4|)))
 (let ((?x2755 (+ (+ (+ ?x2075 (* 15.0 |v0:17|)) (* (- 12.0) ?x2251)) (* 16.0 ?x4885))))
 (let (($x5700 (<= (+ (+ (+ ?x2755 (* 6.0 |v14:3|)) (* (- 12.0) ?x2673)) ?x3805) ?x2525)))
 (let ((?x5885 (* 12.0 |v2:15|)))
 (let ((?x6503 (+ (+ (+ (+ (* (- 17.0) |v13:4|) (* ?x2525 |v16:1|)) (* 5.0 |v0:17|)) |v2:15|) (* (- 11.0) ?x5093))))
 (let ((?x5261 (* 18.0 ?x2251)))
 (let ((?x2137 (* 15.0 |v14:3|)))
 (let ((?x3773 (+ (+ (+ (+ (* 20.0 |v15:2|) (* ?x3539 ?x5093)) (* 0.0 |v17:0|)) ?x2137) (* ?x5267 |v13:4|))))
 (let (($x6838 (and (<= (+ (+ ?x3773 (* 4.0 |v13:4|)) ?x5261) 17.0) (<= (+ (+ ?x6503 ?x5885) (* ?x829 |v15:2|)) 15.0))))
 (let (($x6773 (or (and $x6838 (and $x5700 (<= (+ ?x8117 ?x7207) 20.0))) (or (<= (+ (+ ?x5041 ?x696) ?x7158) 10.0) $x2389))))
 (let (($x6829 (and $x6773 (and (and $x6796 $x1081) (and (<= (+ ?x2263 ?x136) 19.0) $x635)))))
 (let ((?x3623 (+ (+ (+ (+ (* (- 17.0) |v12:5|) (* ?x3539 |v4:13|)) ?x3203) (* 0.0 |v16:1|)) (* ?x2398 ?x4885))))
 (let ((?x2626 (* ?x2525 |v0:17|)))
 (let ((?x7119 (+ (+ (+ (+ ?x7207 (* 7.0 |v0:17|)) (* ?x5431 ?x5350)) (* 20.0 |v3:14|)) ?x6969)))
 (let (($x6342 (or (<= (+ (+ ?x7119 ?x2626) (* ?x5267 |v12:5|)) 2.0) (<= (+ (+ ?x3623 (* (- 17.0) |v15:2|)) (* 13.0 |v16:1|)) ?x4500))))
 (let ((?x463 (* 17.0 |v4:13|)))
 (let ((?x6784 (* 15.0 |v4:13|)))
 (let ((?x4242 (+ (+ (+ (* 14.0 |v15:2|) (* 16.0 |v1:16|)) (* ?x8028 |v2:15|)) (* ?x7238 |v16:1|))))
 (let ((?x3360 (* 14.0 ?x788)))
 (let ((?x4895 (* 14.0 |v13:4|)))
 (let ((?x907 (+ (+ (+ (+ (+ ?x2183 (* ?x2525 |v5:12|)) (* ?x580 ?x2251)) ?x863) ?x4895) ?x3491)))
 (let (($x722 (or (<= (+ ?x907 ?x3360) ?x5716) (<= (+ (+ (+ ?x4242 |v15:2|) ?x6784) ?x463) ?x2525))))
 (let ((?x633 (- 11.0)))
 (let ((?x5526 (* ?x2525 |v12:5|)))
 (let ((?x4410 (+ (+ (+ (+ (+ ?x8575 ?x6784) ?x4938) (* 10.0 ?x4885)) (* ?x3539 |v16:1|)) (* ?x580 ?x5093))))
 (let ((?x6257 (* ?x7238 |v0:17|)))
 (let ((?x197 (+ (+ (+ (+ ?x3805 (* ?x3539 |v5:12|)) (* ?x2398 ?x5093)) (* ?x2977 |v3:14|)) (* 2.0 |v14:3|))))
 (let (($x1083 (and (<= (+ (+ ?x197 ?x6257) (* 19.0 |v15:2|)) 8.0) (<= (+ ?x4410 ?x5526) ?x633))))
 (let ((?x7312 (- 17.0)))
 (let ((?x5478 (* ?x7312 |v3:14|)))
 (let ((?x1902 (+ (+ (+ (+ (* ?x7312 |v0:17|) ?x4415) (* 4.0 ?x5350)) |v15:2|) (* ?x529 |v12:5|))))
 (let ((?x6836 (* 4.0 |v5:12|)))
 (let ((?x20 (* 14.0 |v5:12|)))
 (let ((?x4435 (* 3.0 |v17:0|)))
 (let ((?x3000 (+ (+ (+ (+ (* 18.0 |v13:4|) (* ?x2525 |v15:2|)) (* 18.0 |v0:17|)) ?x9055) ?x4435)))
 (let (($x3551 (and (<= (+ (+ ?x3000 ?x20) ?x6836) ?x2977) (<= (+ (+ ?x1902 ?x1030) ?x5478) ?x8706))))
 (let ((?x6425 (* 5.0 |v2:15|)))
 (let ((?x6354 (* 14.0 ?x5093)))
 (let ((?x4520 (+ (+ (+ (+ ?x3242 (* 9.0 ?x2251)) (* 6.0 |v17:0|)) (* ?x4500 ?x2251)) ?x6354)))
 (let ((?x8913 (* ?x8706 |v3:14|)))
 (let ((?x3499 (+ (+ (+ (* 2.0 ?x788) (* ?x4500 ?x788)) (* ?x5716 ?x788)) (* ?x2977 |v13:4|))))
 (let (($x1756 (and (<= (+ (+ (+ ?x3499 (* 8.0 ?x5093)) ?x6905) ?x8913) ?x7238) (<= (+ (+ ?x4520 (* ?x7238 ?x2673)) ?x6425) 15.0))))
 (let ((?x2841 (* 18.0 |v0:17|)))
 (let ((?x6731 (* 3.0 |v1:16|)))
 (let ((?x7652 (+ (+ (+ (+ (* ?x2977 |v0:17|) (* ?x6050 |v4:13|)) (* ?x8706 ?x2673)) ?x2875) ?x6731)))
 (let ((?x135 (* 6.0 |v1:16|)))
 (let ((?x5201 (* ?x829 |v5:12|)))
 (let ((?x1295 (+ (+ (+ (+ (* 9.0 |v2:15|) (* 7.0 |v16:1|)) ?x7624) (* ?x2621 ?x788)) (* ?x3539 ?x2673))))
 (let (($x2822 (and (<= (+ (+ ?x1295 ?x5201) ?x135) ?x2398) (<= (+ (+ ?x7652 ?x2841) ?x5526) ?x2529))))
 (let ((?x3238 (* ?x2398 |v0:17|)))
 (let ((?x4639 (* 18.0 |v1:16|)))
 (let ((?x272 (* ?x6050 |v4:13|)))
 (let ((?x8546 (* 8.0 |v4:13|)))
 (let ((?x4075 (+ (+ (+ (+ (* 5.0 ?x4885) (* 13.0 ?x4885)) (* 11.0 |v15:2|)) ?x8546) ?x272)))
 (let ((?x2037 (* 11.0 |v16:1|)))
 (let ((?x1072 (+ (+ (+ (+ (* ?x5716 |v13:4|) (* 15.0 |v15:2|)) (* ?x2621 ?x5093)) ?x5526) ?x696)))
 (let (($x1713 (and (<= (+ (+ ?x1072 ?x2037) ?x7769) 10.0) (<= (+ (+ ?x4075 ?x4639) ?x3238) ?x2398))))
 (let ((?x8162 (* ?x8706 |v14:3|)))
 (let ((?x4501 (+ (+ (+ (+ (+ ?x291 (* ?x580 ?x4885)) ?x5168) ?x7909) (* ?x2977 |v17:0|)) ?x136)))
 (let ((?x2820 (* ?x529 |v5:12|)))
 (let ((?x601 (+ (+ (+ (+ (* 2.0 ?x5350) ?x4641) (* ?x2621 |v14:3|)) (* ?x6050 ?x2251)) (* ?x8028 ?x2673))))
 (let (($x682 (and (and (<= (+ (+ ?x601 ?x2820) ?x1082) 18.0) (<= (+ ?x4501 ?x8162) ?x5431)) $x1713)))
 (let (($x1873 (or (and (or $x682 (or $x2822 $x1756)) (or (or $x3551 $x1083) (and $x722 $x6342))) $x6829)))
 (let (($x5030 (and (and $x1873 (and $x241 $x1159)) (<= (+ (+ (+ ?x3496 ?x3143) ?x6905) ?x5994) 12.0))))
 (let (($x4184 (not (= |v6:11_st| (RMk1 val!9209)))))
 (let (($x3947 (not (= |v7:10_st| (RMk1 val!9208)))))
 (let (($x3746 (not (= |v8:9_st| (RMk1 val!9207)))))
 (let (($x3505 (not (= |v9:8_st| (RMk1 val!9206)))))
 (let (($x1202 (not (= |v10:7_st| (RMk1 val!9205)))))
 (let (($x2351 (not (= |v11:6_st| (RMk1 val!9204)))))
 (and $x2351 $x1202 $x3505 $x3746 $x3947 $x4184 $x5030)))))))))))))))))))))))))))))))))))))))))))))))))))))))))))))))))))))))))))))))))))))))))))))))))))))))))))))))))))))))))))))))))))))))))))))))))))))))))))))))))))))))))))))))))))))))))))))))))))))))))))))))))))))))))))))))))))))))))
 )
 )
 )
 )
 )
 )
 )
 )
 )
 )
 )
 )
 )
 )
 )
 )
 )
 )
(check-sat)
